%%%mzn-stat: initTime=0.007186721
%%%mzn-stat: objective=331
%%%mzn-stat: nodes=28433
%%%mzn-stat: restarts=1
%%%mzn-stat: peakDepth=329
%%%mzn-stat: solveTime=6.863183756
%%%mzn-stat: variables=651
%%%mzn-stat: propagators=1664
%%%mzn-stat: failures=20209
%%%mzn-stat: propagations=6767594
%%%mzn-stat: nogoods=20209
%%%mzn-stat: AverageConflictSize=18.852689395813748
%%%mzn-stat: NumUnitNogoodsLearned=304
%%%mzn-stat: AverageLearnedNogoodLength=53.104062546390224
%%%mzn-stat: AverageBacktrackAmount=0
%%%mzn-stat: AverageLbd=28.553367311593846
%%%mzn-stat-end
maxleg = 331;
succ = array1d(1..50,[2, 13, 45, 6, 48, 3, 16, 4, 49, 47, 9, 50, 28, 42, 38, 22, 39, 25, 23, 14, 36, 27, 40, 46, 30, 15, 29, 31, 37, 21, 12, 20, 44, 32, 43, 1, 33, 7, 8, 11, 18, 24, 10, 41, 5, 35, 17, 26, 34, 19]);
% time elapsed: 10.20 s
----------
%%%mzn-stat: initTime=0.007186721
%%%mzn-stat: objective=305
%%%mzn-stat: nodes=33808
%%%mzn-stat: restarts=1
%%%mzn-stat: peakDepth=329
%%%mzn-stat: solveTime=7.901610787
%%%mzn-stat: variables=651
%%%mzn-stat: propagators=1664
%%%mzn-stat: failures=23829
%%%mzn-stat: propagations=7892341
%%%mzn-stat: nogoods=23829
%%%mzn-stat: AverageConflictSize=18.24793319065005
%%%mzn-stat: NumUnitNogoodsLearned=304
%%%mzn-stat: AverageLearnedNogoodLength=50.765285996055226
%%%mzn-stat: AverageBacktrackAmount=0
%%%mzn-stat: AverageLbd=27.502538923160856
%%%mzn-stat-end
maxleg = 305;
succ = array1d(1..50,[2, 13, 45, 6, 48, 7, 16, 4, 49, 47, 9, 50, 28, 42, 38, 15, 39, 25, 23, 14, 36, 27, 40, 46, 30, 22, 29, 31, 37, 21, 12, 20, 44, 32, 43, 1, 33, 3, 8, 11, 18, 24, 10, 41, 5, 35, 17, 26, 34, 19]);
% time elapsed: 11.23 s
----------
==========
% time elapsed: 11.23 s
%%%mzn-stat: initTime=0.007186721
%%%mzn-stat: objective=305
%%%mzn-stat: nodes=33808
%%%mzn-stat: restarts=1
%%%mzn-stat: peakDepth=329
%%%mzn-stat: solveTime=7.901615874
%%%mzn-stat: variables=651
%%%mzn-stat: propagators=1664
%%%mzn-stat: failures=23829
%%%mzn-stat: propagations=7892341
%%%mzn-stat: nogoods=23829
%%%mzn-stat: AverageConflictSize=18.24793319065005
%%%mzn-stat: NumUnitNogoodsLearned=304
%%%mzn-stat: AverageLearnedNogoodLength=50.765285996055226
%%%mzn-stat: AverageBacktrackAmount=0
%%%mzn-stat: AverageLbd=27.502538923160856
%%%mzn-stat-end
